6591
6591
7188
7843
7900
7900
7900
7900
7900
7900
8071
8128
8128
8128
8128
8242
8242
8242
8242
8242
8242
8242
8242
8242
8242
8242
8242
8242
8242
8242
8242
8242
8242
8242
8242
8242
8242
8242
8242
8242
8242
8242
8242
8242
8242
8242
8242
8242
8242
8242
8242
8242
8242
8242
8242
8242
8242
8242
8242
8242
8242
8242
8242
8242
8242
8242
8242
8242
8242
8242
8242
8242
8242
8242
8242
8242
8242
8242
8242
8242
8242
8242
8242
8242
8242
8242
8242
8242
8242
8242
8242
8242
8242
8242
8242
8242
8242
8242
8242
